2 1
3 1
3 2
4 1
4 2
4 3
5 1
5 2
5 3
5 4
6 1
6 2
6 3
6 4
6 5
7 1
7 2
7 3
7 4
7 5
7 6
8 1
8 2
9 1
9 2
9 3
9 8
10 2
10 3
10 4
10 8
10 9
11 3
11 4
11 5
11 8
11 9
11 10
12 4
12 5
12 6
12 8
12 9
12 10
12 11
13 5
13 6
13 7
13 8
13 9
13 10
13 11
13 12
14 6
14 7
14 8
14 9
14 10
14 11
14 12
14 13
15 1
15 3
15 8
15 9
16 2
16 4
16 8
16 9
16 10
16 15
17 1
17 3
17 5
17 9
17 10
17 11
17 15
17 16
18 2
18 4
18 6
18 10
18 11
18 12
18 15
18 16
18 17
19 3
19 5
19 7
19 11
19 12
19 13
19 15
19 16
19 17
19 18
20 4
20 6
20 12
20 13
20 14
20 15
20 16
20 17
20 18
20 19
21 5
21 7
21 13
21 14
21 15
21 16
21 17
21 18
21 19
21 20
22 1
22 4
22 8
22 10
22 15
22 16
23 2
23 5
23 9
23 11
23 15
23 16
23 17
23 22
24 3
24 6
24 8
24 10
24 12
24 16
24 17
24 18
24 22
24 23
25 1
25 4
25 7
25 9
25 11
25 13
25 17
25 18
25 19
25 22
25 23
25 24
26 2
26 5
26 10
26 12
26 14
26 18
26 19
26 20
26 22
26 23
26 24
26 25
27 3
27 6
27 11
27 13
27 19
27 20
27 21
27 22
27 23
27 24
27 25
27 26
28 4
28 7
28 12
28 14
28 20
28 21
28 22
28 23
28 24
28 25
28 26
28 27
29 1
29 5
29 8
29 11
29 15
29 17
29 22
29 23
30 2
30 6
30 9
30 12
30 16
30 18
30 22
30 23
30 24
30 29
31 3
31 7
31 10
31 13
31 15
31 17
31 19
31 23
31 24
31 25
31 29
31 30
32 4
32 8
32 11
32 14
32 16
32 18
32 20
32 24
32 25
32 26
32 29
32 30
32 31
33 1
33 5
33 9
33 12
33 17
33 19
33 21
33 25
33 26
33 27
33 29
33 30
33 31
33 32
34 2
34 6
34 10
34 13
34 18
34 20
34 26
34 27
34 28
34 29
34 30
34 31
34 32
34 33
35 3
35 7
35 11
35 14
35 19
35 21
35 27
35 28
35 29
35 30
35 31
35 32
35 33
35 34
36 1
36 6
36 8
36 12
36 15
36 18
36 22
36 24
36 29
36 30
37 2
37 7
37 9
37 13
37 16
37 19
37 23
37 25
37 29
37 30
37 31
37 36
38 3
38 10
38 14
38 17
38 20
38 22
38 24
38 26
38 30
38 31
38 32
38 36
38 37
39 4
39 11
39 15
39 18
39 21
39 23
39 25
39 27
39 31
39 32
39 33
39 36
39 37
39 38
40 5
40 8
40 12
40 16
40 19
40 24
40 26
40 28
40 32
40 33
40 34
40 36
40 37
40 38
40 39
41 1
41 6
41 9
41 13
41 17
41 20
41 25
41 27
41 33
41 34
41 35
41 36
41 37
41 38
41 39
41 40
42 2
42 7
42 10
42 14
42 18
42 21
42 26
42 28
42 34
42 35
42 36
42 37
42 38
42 39
42 40
42 41
43 1
43 7
43 8
43 13
43 15
43 19
43 22
43 25
43 29
43 31
43 36
43 37
44 2
44 9
44 14
44 16
44 20
44 23
44 26
44 30
44 32
44 36
44 37
44 38
44 43
45 3
45 10
45 17
45 21
45 24
45 27
45 29
45 31
45 33
45 37
45 38
45 39
45 43
45 44
46 4
46 11
46 18
46 22
46 25
46 28
46 30
46 32
46 34
46 38
46 39
46 40
46 43
46 44
46 45
47 5
47 12
47 15
47 19
47 23
47 26
47 31
47 33
47 35
47 39
47 40
47 41
47 43
47 44
47 45
47 46
48 6
48 8
48 13
48 16
48 20
48 24
48 27
48 32
48 34
48 40
48 41
48 42
48 43
48 44
48 45
48 46
48 47
49 1
49 7
49 9
49 14
49 17
49 21
49 25
49 28
49 33
49 35
49 41
49 42
49 43
49 44
49 45
49 46
49 47
49 48
7